param n := 32;
param c := 100;
param w := 
1 99
2 98
3 96
4 89
5 86
6 85
7 80
8 80
9 76
10 75
11 75
12 70
13 69
14 69
15 68
16 66
17 66
18 64
19 64
20 64
21 63
22 48
23 47
24 29
25 28
26 26
27 22
28 21
29 19
30 18
31 11
32 8
;